
  32   50
   4    7    5   15   11   16   15   10    8   12   14   16    7   18   16   15   13   11    5   11   15   11    7   14   15    3    9    4   10   14    5   22    0    0    0    0    0    0    0    0    0    0    0    0    0    0    0    0    0    0

   0   0   0   0   0   0   0   0   0   0   0   0   0   0   0   0   0   0   0   0   0   0   0   0   0   0   0   0   0   0   0   0   0   0   0   0   0   0   0   0   0   0   0   0   0   0   0   0   0   0   0   9 2 3 4 5 6 8 11 13 18 
   5   0   0   0   0   0   0   0   0   0   0   0   0   0   0   0   0   0   0   0   0   0   0   0   3   0   0   0   0   0   0   1   7   0   0   0   0   0   0   0   0   0   0   0   0   0   0   0   0   0   0   5 29 28 17 15 9 
   9   0   4   0  10   0   0   0   0   5   0   0   7   0   0   0   0   9  10   0   0   0   0   0   9   0   0   0   0   0   0   0   0   0   0   0   0   0   0   0   0   0   0   0   0   0   0   0   0   0   0   5 29 21 15 14 10 
   5   0   0   0   8   0   0   0   0   0   0   0   0   0   0   0   4   0   0   0   0   0   0   0   0   0   0   0   0   0   0   0   0   0   0   0   0   0   0   0   0   0   0   0   0   0   0   0   0   0   0   5 28 25 19 16 7 
   4   0   0   0   0   0   0   0   0   0   0   0   0   0   0   0   0   0   0   0   0   0   0   0   0   4   0   0   0   0   0   0   0   0   0   0   0   0   0   0   0   0   0   0   0   0   0   0   0   0   0   7 29 28 21 20 19 17 16 
   6   0   0   0   0   0   3   3   0   0   0   7   0   0   0   0   0   0   0   0   0   0   0   0   0   0   0   0   0   0   0   0   8   0   0   0   0   0   0   0   0   0   0   0   0   0   0   0   0   0   0   5 27 26 21 14 12 
   9   0   0   0   0   0   0   0   0   0   0   0   0   0   0   0   0   0   0   0   0   0   0   0   0   0   0   2   0   0   7   0   4   0   0   0   0   0   0   0   0   0   0   0   0   0   0   0   0   0   0   3 30 24 15 
   2   4   0   0   0   0   0   0  10   0   0   0   0   4   0   0   4   0   0   0   0   0   0   0   5   1   0   0   0   0   0   0   0   0   0   0   0   0   0   0   0   0   0   0   0   0   0   0   0   0   0   3 20 19 16 
   9   0   0   0   0   0   0   0   0   0   0  10   4   0   9   0   0   0   0   0   3   0   0   0   0   0   0   0   0   0   0   0  10   0   0   0   0   0   0   0   0   0   0   0   0   0   0   0   0   0   0   2 21 14 
  10   0   0   0  10   0  10   0   0   1   0   0   0   0   0   0   9   0   0   0   0   0   0   0   0   0   0   0   0   0   4   0   0   0   0   0   0   0   0   0   0   0   0   0   0   0   0   0   0   0   0   5 27 25 24 22 19 
   9   0   0   0   0   0   0   0   0   0   7   0   6   0   0   0   0   0   0   0  10   9   0   0   0   0   0   0   0  10   0   0   0   0   0   0   0   0   0   0   0   0   0   0   0   0   0   0   0   0   0   5 31 27 26 22 19 
  10   0   0   0   0   0   0   0   0   0   0   0   0   0   6   0   0   1   0   0   0   0   0   0   0   0   0   0   0   0   0   0   0   0   0   0   0   0   0   0   0   0   0   0   0   0   0   0   0   0   0   4 28 24 20 19 
   9   0   0   0   0   0   0   0   0   0   0   0   4   0   0   0   0   0   0   0   0   0   1   0   0   0   0   0   0   0   8   0   7   0   0   0   0   0   0   0   0   0   0   0   0   0   0   0   0   0   0   1 14 
   3   0   0   0   0   0   0   0   0   0   0   0   0   0   4   6   0   8   0   0   0   0   0   0  10   0   0   0   0   0   0   0   0   0   0   0   0   0   0   0   0   0   0   0   0   0   0   0   0   0   0   4 25 24 22 19 
   6   0   0   0   1   6  10   0   0   0   0   0   0   0   0   0  10   0   0   0   4   0   0   0   0   0   0   0   0   3   0   0   0   0   0   0   0   0   0   0   0   0   0   0   0   0   0   0   0   0   0   4 27 26 23 20 
   6   0   0   0   0   0   0   0   0   0   0   0   0   7   0   0   0   4   0   5   0   0   0   0   4   0   0   0   0   0   0   0   0   0   0   0   0   0   0   0   0   0   0   0   0   0   0   0   0   0   0   2 26 24 
  10   0   0   0   0   0   0   0   0   0   0   0   0   0   8   0   0   0   0   0   0   0   0   0   0   0   0   0   0   0   0   0   0   0   0   0   0   0   0   0   0   0   0   0   0   0   0   0   0   0   0   2 25 23 
   9   0   0   0   0   0   0   0   0   0   0   0   0   0   0   0   0   0   0   0   0   0   0   0   0   0   0   0   0   0   3   0   0   0   0   0   0   0   0   0   0   0   0   0   0   0   0   0   0   0   0   2 27 24 
   6   0   0   0   0   0   0   0   0   0   0   0   0   0   0   5   0   6   9   4   0   0   0   0   0   9   0   0   2   0   0   0   0   0   0   0   0   0   0   0   0   0   0   0   0   0   0   0   0   0   0   1 23 
   1   0   0   0   0   0   0   0   0   0   3   0   0   0   0   2   9   0   0   0   0   1   0   0   4   0   1   0   0   0   7   0   0   0   0   0   0   0   0   0   0   0   0   0   0   0   0   0   0   0   0   1 22 
   4   0   0   0   4   0   0   0   0   0   0   0   0   7   0   9   0   0   2   0   0   0   0   0   0   4   3   0   0   0   0   4   0   0   0   0   0   0   0   0   0   0   0   0   0   0   0   0   0   0   0   1 22 
   4   0   7   0   7   0   0   0   0   8   0   0   3   0   0   9   0   0   0   0   0   0   4   0   0  10   0   0   0   0   0   0   0   0   0   0   0   0   0   0   0   0   0   0   0   0   0   0   0   0   0   1 32
   5   0   0   0   0   0   5   0   0   0   0   0   0   0   0   0   0   0   0   0   0  10   0   0   0   0   0   0   0   0   0   0   0   0   0   0   0   0   0   0   0   0   0   0   0   0   0   0   0   0   0   1 32
   1   0   0   0   0   0   0   0   0   0   6   0   0   0   0   2   0   0   0   0   0   0   0   0   0   0   0   0   0   0   0   0   0   0   0   0   0   0   0   0   0   0   0   0   0   0   0   0   0   0   0   1 32
   5   0   0   0   0   0   0   0   8   0   0   0   0   0   0   6   0   0   0   0   0   0   9   0   0   0   0   9   0   4   0   0   0   0   0   0   0   0   0   0   0   0   0   0   0   0   0   0   0   0   0   1 32
   2   0   0   0   0   0   0   3   0   0   3   0   0   0   0   0   0   0   4   0   0  10   0   7   0   0   0   0   0   0   1   0   0   0   0   0   0   0   0   0   0   0   0   0   0   0   0   0   0   0   0   1 32
   7   0   0   0   0   0   0   0   0   0   0   9   0   0   0   0   0   0   0   0   0   8   0   0   0   0   0   0   0   0   0   0   0   0   0   0   0   0   0   0   0   0   0   0   0   0   0   0   0   0   0   1 32
   6   0   0   0   0   0   0  10   0   0   9   0   0   0   0   0   0   0   0   0   0   0   0   0   0   0   0   0   0   0   0   2   0   0   0   0   0   0   0   0   0   0   0   0   0   0   0   0   0   0   0   1 32
  10   0   0   5   0   0   0   8   0   0   0   0   0   0   0   0   0   0   0   0   0   0   0   0   0   0   0   0   0   0   0   0   0   0   0   0   0   0   0   0   0   0   0   0   0   0   0   0   0   0   0   1 32
   2   0   0   0   0   8   0   0   0   0   2   0   0   0   0   3   0   0   0   0   0  10   0   0   0   9   0   0   4   0   0   1   0   0   0   0   0   0   0   0   0   0   0   0   0   0   0   0   0   0   0   1 32
   3   0   0   0   0   0   2   0   0   2   0   0   0   0   0   0   0  10   0   0   9   0   0   0   0   0   0   0   0   0   0   0   0   0   0   0   0   0   0   0   0   0   0   0   0   0   0   0   0   0   0   1 32
   0   0   0   0   0   0   0   0   0   0   0   0   0   0   0   0   0   0   0   0   0   0   0   0   0   0   0   0   0   0   0   0   0   0   0   0   0   0   0   0   0   0   0   0   0   0   0   0   0   0   0   0 
